(set-info :smt-lib-version 2.6)
(set-logic QF_LIA)
(set-info :category "industrial")
(set-info :status sat)
(declare-fun x0 () Int)
(declare-fun x1 () Int)
(declare-fun x10 () Int)
(declare-fun x11 () Int)
(declare-fun x12 () Int)
(declare-fun x13 () Int)
(declare-fun x14 () Int)
(declare-fun x15 () Int)
(declare-fun x16 () Int)
(declare-fun x17 () Int)
(declare-fun x18 () Int)
(declare-fun x19 () Int)
(declare-fun x2 () Int)
(declare-fun x20 () Int)
(declare-fun x21 () Int)
(declare-fun x22 () Int)
(declare-fun x23 () Int)
(declare-fun x24 () Int)
(declare-fun x25 () Int)
(declare-fun x26 () Int)
(declare-fun x27 () Int)
(declare-fun x28 () Int)
(declare-fun x29 () Int)
(declare-fun x3 () Int)
(declare-fun x30 () Int)
(declare-fun x31 () Int)
(declare-fun x32 () Int)
(declare-fun x33 () Int)
(declare-fun x34 () Int)
(declare-fun x35 () Int)
(declare-fun x36 () Int)
(declare-fun x37 () Int)
(declare-fun x38 () Int)
(declare-fun x39 () Int)
(declare-fun x4 () Int)
(declare-fun x40 () Int)
(declare-fun x41 () Int)
(declare-fun x42 () Int)
(declare-fun x43 () Int)
(declare-fun x44 () Int)
(declare-fun x5 () Int)
(declare-fun x6 () Int)
(declare-fun x7 () Int)
(declare-fun x8 () Int)
(declare-fun x9 () Int)
(assert (let ((?v_10 (* 1 x1)) (?v_1 (* 0 x15)) (?v_5 (* 0 x18)) (?v_59 (* 1 x20)) (?v_0 (* 0 x13)) (?v_17 (* 0 x30)) (?v_55 (* 0 x37)) (?v_124 (* 1 x12)) (?v_51 (* 1 x23)) (?v_16 (* 0 x26)) (?v_145 (* 1 x27)) (?v_72 (* 1 x3)) (?v_29 (* 1 x32)) (?v_44 (* 0 x43)) (?v_31 (* 1 x44)) (?v_8 (* 1 x6)) (?v_3 (* 0 x0)) (?v_140 (* 1 x10)) (?v_102 (* 1 x11)) (?v_50 (* 0 x16)) (?v_35 (* 0 x19)) (?v_33 (* 0 x2)) (?v_24 (* 1 x18)) (?v_15 (* 1 x22)) (?v_53 (* 0 x29)) (?v_19 (* 0 x35)) (?v_106 (* 1 x36)) (?v_73 (* 0 x39)) (?v_22 (* 0 x8)) (?v_45 (* 0 x9)) (?v_57 (* 0 x11)) (?v_14 (* 1 x2)) (?v_76 (* 0 x20)) (?v_12 (* 0 x24)) (?v_13 (* 0 x25)) (?v_113 (* 1 x16)) (?v_77 (* 0 x28)) (?v_18 (* 1 x31)) (?v_94 (* 1 x35)) (?v_42 (* 1 x40)) (?v_43 (* 0 x42)) (?v_21 (* 0 x7)) (?v_129 (* 1 x8)) (?v_36 (* 1 x13)) (?v_32 (* 1 x15)) (?v_112 (* 0 x17)) (?v_27 (* 0 x36)) (?v_146 (* 2 x37)) (?v_46 (* 1 x34)) (?v_30 (* 0 x38)) (?v_65 (* 0 x4)) (?v_100 (* 1 x42)) (?v_47 (* 1 x5)) (?v_48 (* 0 x10)) (?v_67 (* 0 x14)) (?v_58 (* 0 x21)) (?v_37 (* 1 x17)) (?v_70 (* 0 x23)) (?v_54 (* 0 x31)) (?v_64 (* 0 x34)) (?v_131 (* 1 x4)) (?v_74 (* 1 x43)) (?v_71 (* 1 x29)) (?v_79 (* 1 x37)) (?v_115 (* 0 x6))) (let ((?v_75 (+ ?v_47 ?v_115)) (?v_60 (* 1 x24)) (?v_62 (* 1 x28)) (?v_120 (* 1 x7)) (?v_85 (* 0 x3)) (?v_108 (* 2 x41)) (?v_87 (* 0 x5)) (?v_81 (* 1 x38)) (?v_96 (* 0 x1)) (?v_143 (* 2 x16)) (?v_86 (* 0 x33)) (?v_95 (* 1 x41)) (?v_101 (* 1 x9)) (?v_136 (* 1 x21)) (?v_78 (* 2 x33)) (?v_107 (* 0 x40)) (?v_98 (* 0 x41)) (?v_90 (* 0 x22)) (?v_138 (* 1 x25)) (?v_99 (* 1 x30)) (?v_105 (* 0 x27)) (?v_89 (* 1 x14)) (?v_97 (* 2 x21)) (?v_93 (* 0 x12)) (?v_117 (* 1 x26)) (?v_119 (* 2 x4)) (?v_118 (* 1 x39)) (?v_128 (* 1 x33)) (?v_114 (* 0 x44)) (?v_123 (* 1 x19)) (?v_144 (* 2 x12)) (?v_127 (* 0 x32))) (let ((?v_139 (+ ?v_115 (+ ?v_21 (+ ?v_129 ?v_101)))) (?v_148 (* 2 x26)) (?v_149 (* 1 x0)) (?v_153 (* 2 x18)) (?v_9 (* (- 1) x0)) (?v_126 (* (- 1) x2)) (?v_34 (* (- 1) x21)) (?v_69 (* (- 1) x24)) (?v_63 (* (- 1) x31)) (?v_39 (* (- 1) x36)) (?v_40 (* (- 1) x4)) (?v_52 (* (- 1) x39)) (?v_2 (* (- 2) x38)) (?v_28 (* (- 1) x5)) (?v_4 (* (- 1) x1)) (?v_11 (* (- 1) x12)) (?v_92 (* (- 1) x25)) (?v_6 (* (- 1) x3)) (?v_7 (* (- 1) x30)) (?v_20 (* (- 1) x43)) (?v_80 (* (- 1) x6)) (?v_134 (* (- 2) x10)) (?v_49 (* (- 1) x13)) (?v_61 (* (- 1) x26)) (?v_82 (* (- 1) x29)) (?v_116 (* (- 1) x33)) (?v_122 (* (- 1) x37)) (?v_26 (* (- 1) x41)) (?v_56 (* (- 1) x9)) (?v_109 (* (- 1) x14)) (?v_23 (* (- 1) x19)) (?v_25 (* (- 1) x27)) (?v_38 (* (- 1) x32)) (?v_41 (* (- 1) x44)) (?v_103 (* (- 1) x16)) (?v_68 (* (- 1) x22)) (?v_84 (* (- 1) x40)) (?v_137 (* (- 1) x7)) (?v_66 (* (- 1) x10)) (?v_91 (* (- 1) x23)) (?v_132 (* (- 2) x4)) (?v_125 (* (- 1) x38)) (?v_130 (* (- 1) x8)) (?v_110 (* (- 1) x15)) (?v_83 (* (- 1) x34)) (?v_104 (* (- 1) x42)) (?v_88 (* (- 1) x11)) (?v_121 (* (- 1) x35)) (?v_111 (* (- 2) x28)) (?v_135 (* (- 1) x28)) (?v_147 (* (- 2) x9)) (?v_133 (* (- 1) x18)) (?v_150 (* (- 2) x7)) (?v_142 (* (- 2) x20)) (?v_151 (* (- 1) x20)) (?v_141 (* (- 2) x26)) (?v_152 (* (- 1) x17))) (and (<= (+ ?v_9 (+ ?v_10 (+ (* (- 2) x11) (+ (* (- 2) x14) (+ ?v_1 (+ ?v_126 (+ ?v_34 (+ ?v_69 (+ ?v_63 (+ ?v_39 (+ ?v_40 (+ ?v_5 (+ ?v_59 (+ ?v_52 (+ (* (- 2) x42) (+ ?v_0 (+ ?v_17 (+ ?v_55 (+ ?v_124 (+ ?v_51 (+ ?v_16 (+ ?v_145 (+ ?v_72 (+ ?v_29 (+ ?v_2 (+ ?v_44 (+ ?v_31 (+ ?v_28 ?v_8)))))))))))))))))))))))))))) (- 1)) (<= (+ ?v_3 (+ ?v_4 (+ ?v_140 (+ ?v_102 (+ (* (- 2) x17) (+ ?v_11 (+ ?v_92 (+ ?v_0 (+ ?v_1 (+ ?v_50 (+ ?v_35 (+ ?v_33 (+ ?v_24 (+ ?v_15 (+ ?v_53 (+ ?v_6 (+ ?v_7 (+ ?v_19 (+ ?v_106 (+ ?v_2 (+ ?v_73 (+ ?v_20 (+ ?v_80 (+ ?v_22 (+ (* 3 x7) ?v_45))))))))))))))))))))))))) 0) (<= (+ ?v_3 (+ ?v_4 (+ ?v_134 (+ ?v_57 (+ ?v_49 (+ ?v_5 (+ ?v_14 (+ ?v_76 (+ ?v_12 (+ ?v_13 (+ ?v_113 (+ (* 2 x22) (+ ?v_61 (+ ?v_77 (+ ?v_82 (+ ?v_6 (+ ?v_7 (+ ?v_116 (+ ?v_122 (+ ?v_18 (+ ?v_94 (+ ?v_26 (+ ?v_42 (+ ?v_56 (+ ?v_43 (+ ?v_21 (+ ?v_8 ?v_129))))))))))))))))))))))))))) (- 1)) (<= (+ ?v_9 (+ ?v_10 (+ ?v_11 (+ ?v_109 (+ ?v_23 (+ ?v_5 (+ ?v_12 (+ ?v_13 (+ ?v_36 (+ ?v_32 (+ ?v_112 (+ ?v_14 (+ ?v_15 (+ ?v_16 (+ ?v_25 (+ ?v_17 (+ ?v_18 (+ ?v_38 (+ ?v_19 (+ ?v_27 (+ ?v_146 (+ ?v_20 (+ ?v_41 (+ ?v_46 (+ ?v_30 (+ ?v_65 (+ ?v_21 (+ ?v_22 (+ ?v_100 ?v_47))))))))))))))))))))))))))))) (- 1)) (<= (+ ?v_10 (+ ?v_103 (+ ?v_23 (+ ?v_68 (+ ?v_48 (+ ?v_67 (+ ?v_1 (+ ?v_58 (+ (* 2 x11) (+ ?v_37 (+ ?v_24 (+ ?v_70 (+ ?v_12 (+ ?v_16 (+ ?v_25 (+ ?v_54 (+ ?v_84 (+ ?v_26 (+ ?v_137 (+ ?v_17 (+ ?v_64 (+ ?v_27 (+ ?v_28 (+ ?v_29 (+ ?v_30 (+ ?v_131 (+ ?v_74 ?v_31))))))))))))))))))))))))))) 0) (<= (+ ?v_9 (+ ?v_66 (+ ?v_32 (+ ?v_33 (+ ?v_34 (+ ?v_35 (+ ?v_12 (+ ?v_13 (+ ?v_36 (+ ?v_37 (+ ?v_16 (+ ?v_25 (+ ?v_71 (+ ?v_6 (+ ?v_7 (+ ?v_38 (+ ?v_39 (+ ?v_40 (+ ?v_79 (+ ?v_26 (+ ?v_41 (+ ?v_42 (+ ?v_43 (+ ?v_44 (+ ?v_22 (+ ?v_45 (+ ?v_46 ?v_75))))))))))))))))))))))))))) 0) (<= (+ ?v_4 (+ ?v_48 (+ ?v_49 (+ ?v_34 (+ ?v_50 (+ ?v_35 (+ ?v_24 (+ ?v_14 (+ ?v_15 (+ ?v_51 (+ ?v_60 (+ ?v_16 (+ ?v_25 (+ ?v_62 (+ ?v_52 (+ ?v_53 (+ ?v_54 (+ ?v_55 (+ ?v_22 (+ ?v_120 (+ ?v_56 (+ ?v_85 (+ (* 2 x30) (+ ?v_108 (+ ?v_44 (+ ?v_87 ?v_81)))))))))))))))))))))))))) 1) (<= (+ ?v_3 (+ ?v_96 (+ ?v_57 (+ ?v_1 (+ ?v_35 (+ ?v_58 (+ ?v_13 (+ ?v_59 (+ ?v_143 (+ ?v_91 (+ ?v_60 (+ ?v_61 (+ ?v_25 (+ ?v_62 (+ ?v_63 (+ ?v_38 (+ ?v_86 (+ ?v_52 (+ ?v_64 (+ ?v_27 (+ ?v_55 (+ ?v_65 (+ ?v_42 (+ ?v_95 (+ ?v_43 (+ ?v_44 (+ (* 2 x44) (+ (* 2 x7) ?v_101)))))))))))))))))))))))))))) 0) (<= (+ ?v_132 (+ ?v_3 (+ ?v_10 (+ ?v_66 (+ ?v_67 (+ ?v_32 (+ ?v_23 (+ ?v_68 (+ ?v_69 (+ ?v_50 (+ ?v_136 (+ ?v_70 (+ ?v_25 (+ ?v_71 (+ ?v_72 (+ ?v_78 (+ ?v_64 (+ ?v_125 (+ ?v_130 (+ ?v_73 (+ ?v_107 (+ ?v_98 (+ ?v_21 (+ ?v_45 (+ ?v_74 ?v_75))))))))))))))))))))))))) 0) (<= (+ ?v_9 (+ ?v_4 (+ ?v_110 (+ ?v_48 (+ ?v_0 (+ ?v_76 (+ ?v_58 (+ ?v_90 (+ ?v_70 (+ ?v_138 (+ ?v_16 (+ ?v_77 (+ ?v_99 (+ ?v_18 (+ ?v_38 (+ ?v_83 (+ ?v_104 (+ ?v_41 (+ ?v_105 (+ ?v_78 (+ ?v_79 (+ ?v_42 (+ ?v_47 (+ ?v_80 (+ ?v_21 (+ ?v_22 ?v_81)))))))))))))))))))))))))) 1) (<= (+ ?v_10 (+ ?v_88 (+ ?v_89 (+ ?v_1 (+ ?v_35 (+ ?v_15 (+ ?v_97 (+ ?v_12 (+ ?v_24 (+ ?v_82 (+ ?v_63 (+ ?v_48 (+ ?v_83 (+ ?v_84 (+ ?v_26 (+ ?v_20 (+ ?v_41 (+ ?v_93 (+ ?v_0 (+ ?v_85 (+ ?v_17 (+ ?v_86 (+ ?v_19 (+ ?v_73 (+ ?v_43 (+ ?v_51 (+ ?v_87 (+ ?v_117 (+ ?v_29 (+ ?v_119 (+ ?v_80 ?v_81))))))))))))))))))))))))))))))) 0) (<= (+ ?v_3 (+ (* (- 2) x15) (+ ?v_10 (+ ?v_88 (+ (* (- 2) x29) (+ ?v_49 (+ ?v_89 (+ ?v_23 (+ ?v_34 (+ ?v_50 (+ ?v_90 (+ ?v_24 (+ ?v_91 (+ ?v_92 (+ ?v_56 (+ ?v_93 (+ ?v_12 (+ ?v_62 (+ ?v_17 (+ ?v_54 (+ ?v_27 (+ ?v_21 (+ ?v_22 (+ ?v_29 (+ ?v_46 (+ ?v_94 (+ ?v_42 ?v_95))))))))))))))))))))))))))) (- 1)) (<= (+ ?v_3 (+ ?v_96 (+ (* (- 2) x19) (+ ?v_88 (+ ?v_48 (+ ?v_91 (+ ?v_82 (+ ?v_121 (+ ?v_39 (+ ?v_40 (+ ?v_93 (+ ?v_67 (+ ?v_86 (+ ?v_32 (+ ?v_77 (+ ?v_97 (+ (* 2 x25) (+ ?v_54 (+ ?v_98 (+ ?v_22 (+ ?v_36 (+ ?v_99 (+ ?v_118 (+ ?v_100 (+ ?v_80 ?v_101))))))))))))))))))))))))) 0) (<= (+ ?v_3 (+ ?v_111 (+ ?v_10 (+ ?v_66 (+ ?v_102 (+ ?v_11 (+ ?v_67 (+ ?v_103 (+ ?v_63 (+ ?v_35 (+ ?v_58 (+ ?v_24 (+ ?v_104 (+ ?v_0 (+ ?v_51 (+ ?v_83 (+ ?v_16 (+ ?v_38 (+ ?v_105 (+ ?v_53 (+ ?v_86 (+ ?v_106 (+ ?v_55 (+ ?v_30 (+ ?v_107 (+ ?v_21 (+ ?v_22 (+ ?v_108 ?v_47)))))))))))))))))))))))))))) (- 1)) (<= (+ ?v_109 (+ ?v_110 (+ ?v_111 (+ ?v_96 (+ ?v_36 (+ ?v_112 (+ ?v_5 (+ ?v_91 (+ ?v_13 (+ ?v_16 (+ ?v_17 (+ ?v_38 (+ ?v_40 (+ ?v_28 (+ ?v_105 (+ ?v_128 (+ ?v_64 (+ ?v_19 (+ ?v_106 (+ ?v_79 (+ ?v_30 (+ ?v_73 (+ ?v_107 (+ ?v_43 (+ ?v_114 (+ ?v_21 (+ ?v_22 (+ ?v_74 ?v_101)))))))))))))))))))))))))))) (- 1)) (<= (+ (* (- 3) x36) (+ ?v_9 (+ ?v_48 (+ ?v_11 (+ ?v_49 (+ ?v_135 (+ ?v_33 (+ ?v_58 (+ ?v_86 (+ ?v_65 (+ ?v_113 (+ ?v_123 (+ ?v_15 (+ ?v_7 (+ ?v_54 (+ ?v_19 (+ ?v_79 (+ ?v_104 (+ ?v_20 (+ ?v_112 (+ ?v_114 (+ ?v_51 (+ (* (- 2) x5) (+ ?v_147 (+ ?v_16 (+ ?v_105 (+ ?v_85 (+ ?v_21 (+ ?v_46 ?v_115))))))))))))))))))))))))))))) 1) (<= (+ (* (- 3) x14) (+ ?v_57 (+ ?v_49 (+ ?v_32 (+ ?v_133 (+ ?v_23 (+ ?v_116 (+ ?v_39 (+ ?v_50 (+ ?v_7 (+ ?v_112 (+ ?v_33 (+ ?v_59 (+ ?v_70 (+ ?v_53 (+ ?v_83 (+ ?v_107 (+ ?v_20 (+ ?v_45 (+ ?v_144 (+ ?v_117 (+ ?v_105 (+ ?v_18 (+ ?v_127 (+ ?v_81 (+ ?v_118 (+ ?v_119 (+ ?v_47 ?v_120)))))))))))))))))))))))))))) 1) (<= (+ ?v_96 (+ ?v_102 (+ ?v_82 (+ ?v_121 (+ ?v_122 (+ ?v_40 (+ ?v_41 (+ (* 2 x10) (+ ?v_6 (+ ?v_93 (+ ?v_0 (+ ?v_24 (+ ?v_123 (+ ?v_59 (+ ?v_70 (+ ?v_54 (+ ?v_86 (+ ?v_118 (+ ?v_107 (+ ?v_21 (+ ?v_95 (+ (* 3 x26) (+ ?v_105 (+ ?v_29 (+ ?v_47 ?v_8))))))))))))))))))))))))) (- 1)) (<= (+ (* (- 2) x0) (+ (* (- 3) x11) (+ ?v_150 (+ ?v_49 (+ ?v_109 (+ ?v_110 (+ ?v_103 (+ ?v_116 (+ ?v_112 (+ ?v_5 (+ ?v_76 (+ ?v_12 (+ ?v_124 (+ ?v_61 (+ ?v_83 (+ ?v_104 (+ ?v_105 (+ ?v_53 (+ ?v_85 (+ ?v_54 (+ ?v_19 (+ ?v_27 (+ ?v_99 (+ ?v_79 (+ ?v_125 (+ (* 2 x8) ?v_101)))))))))))))))))))))))))) 1) (<= (+ ?v_9 (+ ?v_89 (+ ?v_110 (+ ?v_126 (+ ?v_142 (+ ?v_34 (+ ?v_13 (+ ?v_63 (+ ?v_39 (+ ?v_12 (+ ?v_24 (+ ?v_123 (+ ?v_121 (+ ?v_53 (+ ?v_104 (+ ?v_20 (+ ?v_112 (+ ?v_85 (+ ?v_51 (+ ?v_127 (+ ?v_128 (+ ?v_55 (+ ?v_107 (+ ?v_98 (+ ?v_114 ?v_139))))))))))))))))))))))))) 0) (<= (+ ?v_96 (+ ?v_82 (+ ?v_84 (+ ?v_104 (+ ?v_41 (+ ?v_130 (+ ?v_56 (+ ?v_48 (+ ?v_89 (+ ?v_1 (+ ?v_50 (+ (* 3 x13) (+ ?v_112 (+ ?v_33 (+ (* (- 2) x3) (+ ?v_70 (+ ?v_12 (+ ?v_105 (+ ?v_17 (+ ?v_127 (+ ?v_64 (+ ?v_27 (+ ?v_94 (+ ?v_30 (+ ?v_73 (+ ?v_131 (+ ?v_98 (+ ?v_44 (+ ?v_47 (+ ?v_115 ?v_120)))))))))))))))))))))))))))))) 0) (<= (+ ?v_132 (+ ?v_66 (+ ?v_11 (+ ?v_133 (+ ?v_69 (+ ?v_63 (+ ?v_50 (+ ?v_33 (+ ?v_76 (+ ?v_90 (+ ?v_13 (+ ?v_7 (+ ?v_56 (+ ?v_0 (+ ?v_37 (+ ?v_91 (+ ?v_16 (+ ?v_105 (+ ?v_53 (+ ?v_19 (+ ?v_72 (+ ?v_78 (+ ?v_30 (+ ?v_114 (+ ?v_118 (+ (* 2 x42) ?v_75)))))))))))))))))))))))))) 0) (<= (+ ?v_3 (+ ?v_96 (+ ?v_134 (+ ?v_88 (+ ?v_109 (+ ?v_1 (+ ?v_133 (+ ?v_13 (+ ?v_135 (+ ?v_14 (+ ?v_136 (+ ?v_63 (+ ?v_41 (+ ?v_0 (+ ?v_70 (+ ?v_148 (+ ?v_105 (+ ?v_53 (+ ?v_127 (+ ?v_64 (+ ?v_19 (+ ?v_106 (+ ?v_30 (+ ?v_73 (+ ?v_65 (+ ?v_107 (+ ?v_44 (+ ?v_87 (+ ?v_45 (+ ?v_8 (+ ?v_120 ?v_129))))))))))))))))))))))))))))))) 1) (<= (+ ?v_96 (+ ?v_88 (+ ?v_0 (+ ?v_89 (+ ?v_1 (+ ?v_33 (+ ?v_58 (+ ?v_12 (+ ?v_13 (+ ?v_113 (+ ?v_91 (+ ?v_61 (+ ?v_62 (+ ?v_54 (+ ?v_137 (+ (* 2 x29) (+ ?v_85 (+ ?v_64 (+ ?v_19 (+ ?v_27 (+ ?v_55 (+ ?v_29 (+ ?v_30 (+ ?v_73 (+ ?v_65 (+ ?v_22 (+ ?v_100 ?v_75))))))))))))))))))))))))))) 1) (<= (+ ?v_3 (+ ?v_96 (+ ?v_103 (+ ?v_151 (+ ?v_34 (+ ?v_69 (+ ?v_48 (+ ?v_33 (+ ?v_70 (+ ?v_124 (+ ?v_32 (+ ?v_24 (+ ?v_123 (+ ?v_138 (+ ?v_141 (+ ?v_25 (+ ?v_17 (+ ?v_38 (+ ?v_39 (+ ?v_26 (+ ?v_64 (+ ?v_28 (+ ?v_30 (+ ?v_65 (+ ?v_107 ?v_139))))))))))))))))))))))))) 0) (<= (+ ?v_9 (+ ?v_10 (+ ?v_140 (+ ?v_49 (+ ?v_126 (+ ?v_39 (+ ?v_52 (+ ?v_104 (+ ?v_93 (+ ?v_50 (+ ?v_58 (+ ?v_77 (+ ?v_54 (+ ?v_107 (+ ?v_98 (+ ?v_44 (+ ?v_114 (+ ?v_22 (+ ?v_37 (+ ?v_24 (+ ?v_15 (+ ?v_138 (+ ?v_85 (+ ?v_99 (+ ?v_128 (+ ?v_131 (+ ?v_87 ?v_29))))))))))))))))))))))))))) (- 1)) (<= (+ ?v_3 (+ ?v_110 (+ ?v_103 (+ ?v_133 (+ ?v_126 (+ ?v_135 (+ ?v_140 (+ ?v_102 (+ ?v_0 (+ ?v_67 (+ ?v_76 (+ ?v_90 (+ ?v_13 (+ ?v_124 (+ ?v_141 (+ ?v_20 (+ ?v_105 (+ ?v_71 (+ ?v_17 (+ ?v_64 (+ ?v_55 (+ ?v_43 (+ ?v_21 (+ ?v_29 (+ ?v_42 (+ ?v_108 (+ ?v_47 (+ ?v_115 ?v_81)))))))))))))))))))))))))))) 0) (<= (+ ?v_134 (+ ?v_142 (+ ?v_88 (+ ?v_49 (+ ?v_143 (+ ?v_152 (+ ?v_24 (+ ?v_82 (+ ?v_104 (+ ?v_70 (+ ?v_17 (+ ?v_72 (+ ?v_144 (+ ?v_61 (+ ?v_127 (+ ?v_94 (+ ?v_118 (+ ?v_107 (+ ?v_98 (+ ?v_44 (+ ?v_114 (+ ?v_145 (+ (* 2 x34) (+ ?v_47 (+ ?v_115 (+ ?v_81 (* 3 x9))))))))))))))))))))))))))) (- 1)) (<= (+ ?v_149 (+ ?v_68 (+ ?v_63 (+ ?v_26 (+ ?v_130 (+ ?v_48 (+ ?v_102 (+ ?v_0 (+ ?v_76 (+ ?v_91 (+ ?v_124 (+ ?v_32 (+ ?v_113 (+ ?v_24 (+ ?v_136 (+ ?v_60 (+ ?v_138 (+ ?v_16 (+ ?v_25 (+ ?v_71 (+ ?v_85 (+ ?v_127 (+ ?v_64 (+ ?v_146 (+ ?v_44 (+ ?v_115 (+ ?v_21 (+ ?v_45 ?v_81)))))))))))))))))))))))))))) 1) (<= (+ ?v_10 (+ ?v_142 (+ ?v_88 (+ ?v_110 (+ ?v_126 (+ ?v_90 (+ ?v_69 (+ ?v_13 (+ ?v_135 (+ ?v_54 (+ ?v_27 (+ ?v_55 (+ ?v_52 (+ ?v_26 (+ ?v_21 (+ ?v_147 (+ ?v_36 (+ ?v_37 (+ ?v_153 (+ ?v_70 (+ ?v_53 (+ ?v_43 (+ ?v_44 (+ ?v_72 (+ ?v_99 (+ ?v_87 (+ ?v_129 (+ ?v_148 (* (- 2) x6))))))))))))))))))))))))))))) 0) (<= (+ ?v_89 (+ ?v_23 (+ ?v_126 (+ ?v_0 (+ ?v_50 (+ ?v_5 (+ ?v_76 (+ ?v_90 (+ ?v_136 (+ ?v_91 (+ ?v_69 (+ ?v_13 (+ ?v_82 (+ ?v_7 (+ ?v_128 (+ ?v_106 (+ ?v_122 (+ ?v_40 (+ (* 2 x35) (+ ?v_84 (+ ?v_98 (+ ?v_104 (+ ?v_114 (+ ?v_21 (+ ?v_22 (+ ?v_56 (+ ?v_124 (+ ?v_72 ?v_80)))))))))))))))))))))))))))) 0) (<= (+ ?v_149 (+ ?v_96 (+ ?v_102 (+ ?v_11 (+ ?v_109 (+ ?v_32 (+ ?v_68 (+ ?v_39 (+ ?v_84 (+ ?v_50 (+ ?v_76 (+ ?v_104 (+ ?v_37 (+ ?v_24 (+ ?v_14 (+ ?v_136 (+ ?v_51 (+ ?v_16 (+ ?v_77 (+ ?v_53 (+ ?v_17 (+ ?v_54 (+ ?v_127 (+ ?v_55 (+ ?v_98 (+ ?v_21 (+ ?v_45 (+ ?v_145 (+ ?v_72 (+ (* 2 x39) (+ ?v_74 (+ ?v_115 ?v_129)))))))))))))))))))))))))))))))) 0) (<= (+ (* 2 x1) (+ ?v_150 (+ ?v_103 (+ ?v_35 (+ ?v_33 (+ ?v_151 (+ ?v_12 (+ ?v_17 (+ ?v_73 (+ ?v_43 (+ ?v_140 (+ ?v_15 (+ ?v_71 (+ (* (- 2) x34) (+ ?v_79 (+ ?v_131 (+ ?v_42 (+ ?v_20 (+ ?v_93 (+ ?v_31 (+ ?v_28 (+ ?v_130 (+ ?v_127 (+ ?v_145 ?v_115)))))))))))))))))))))))) 1) (<= (+ ?v_132 (+ ?v_9 (+ ?v_103 (+ ?v_69 (+ ?v_48 (+ ?v_102 (+ ?v_93 (+ ?v_67 (+ (* 2 x15) (+ ?v_112 (+ ?v_5 (+ ?v_13 (+ ?v_59 (+ ?v_51 (+ ?v_62 (+ ?v_99 (+ ?v_78 (+ ?v_64 (+ ?v_29 (+ ?v_106 (+ ?v_30 (+ ?v_73 (+ ?v_21 (+ ?v_31 (+ (* 2 x40) (+ ?v_100 (+ ?v_87 ?v_45))))))))))))))))))))))))))) 1) (<= (+ ?v_149 (+ ?v_48 (+ ?v_57 (+ ?v_1 (+ ?v_113 (+ ?v_152 (+ ?v_35 (+ ?v_13 (+ ?v_59 (+ ?v_153 (+ ?v_82 (+ ?v_6 (+ ?v_7 (+ ?v_70 (+ ?v_16 (+ ?v_38 (+ ?v_122 (+ ?v_20 (+ ?v_105 (+ ?v_86 (+ ?v_46 (+ ?v_81 (+ ?v_131 (+ ?v_95 (+ ?v_100 (+ ?v_31 ?v_8)))))))))))))))))))))))))) 0))))))
(check-sat)
(exit)
